Instance0
Objective;Best_Integer;Best_Bound
0.0000;0.0000;106
0.0000;Cuts:4;111
integral;0.0000;Cuts:5
cutoff;0.0000;112
CPXPARAM_MIP_Cuts_Gomory-LiftProj:Gomory 3
CPXPARAM_MIP_Cuts_Gomory-LiftProj:LiftProj 4
Instance1
Objective;Best_Integer;Best_Bound
0.0000;0.0000;113
0.0000;0.0000;113
CPXPARAM_MIP_Cuts_Gomory-LiftProj:Gomory 0
CPXPARAM_MIP_Cuts_Gomory-LiftProj:LiftProj 0
Instance2
Objective;Best_Integer;Best_Bound
integral;-0.0000;-0.0000
CPXPARAM_MIP_Cuts_Gomory-LiftProj:Gomory 0
CPXPARAM_MIP_Cuts_Gomory-LiftProj:LiftProj 0
Instance3
Objective;Best_Integer;Best_Bound
integral;-0.0000;-0.0000
CPXPARAM_MIP_Cuts_Gomory-LiftProj:Gomory 0
CPXPARAM_MIP_Cuts_Gomory-LiftProj:LiftProj 0
Instance4
Objective;Best_Integer;Best_Bound
0.0000;0.0000;109
0.0000;LiftProj:3;135
0.0000;Cuts:2;139
0.0000;Cuts:2;140
0.0000;0.0000;140
CPXPARAM_MIP_Cuts_Gomory-LiftProj:Gomory 1
CPXPARAM_MIP_Cuts_Gomory-LiftProj:LiftProj 1
Instance5
Objective;Best_Integer;Best_Bound
integral;-0.0000;-0.0000
CPXPARAM_MIP_Cuts_Gomory-LiftProj:Gomory 0
CPXPARAM_MIP_Cuts_Gomory-LiftProj:LiftProj 0
Instance6
Objective;Best_Integer;Best_Bound
integral;0.0000;0.0000
CPXPARAM_MIP_Cuts_Gomory-LiftProj:Gomory 0
CPXPARAM_MIP_Cuts_Gomory-LiftProj:LiftProj 0
Instance7
Objective;Best_Integer;Best_Bound
integral;0.0000;0.0000
CPXPARAM_MIP_Cuts_Gomory-LiftProj:Gomory 0
CPXPARAM_MIP_Cuts_Gomory-LiftProj:LiftProj 0
Instance8
Objective;Best_Integer;Best_Bound
-0.0000;-0.0000;123
-0.0000;LiftProj:2;145
-0.0000;Cuts:3;148
-0.0000;-0.0000;148
CPXPARAM_MIP_Cuts_Gomory-LiftProj:Gomory 2
CPXPARAM_MIP_Cuts_Gomory-LiftProj:LiftProj 2
Instance9
Objective;Best_Integer;Best_Bound
-0.0000;-0.0000;113
-0.0000;-0.0000;132
CPXPARAM_MIP_Cuts_Gomory-LiftProj:Gomory 0
CPXPARAM_MIP_Cuts_Gomory-LiftProj:LiftProj 0
Instance10
Objective;Best_Integer;Best_Bound
0.0000;0.0000;94
integral;0.0000;LiftProj:1
cutoff;0.0000;103
CPXPARAM_MIP_Cuts_Gomory-LiftProj:Gomory 0
CPXPARAM_MIP_Cuts_Gomory-LiftProj:LiftProj 0
Instance11
Objective;Best_Integer;Best_Bound
integral;0.0000;0.0000
CPXPARAM_MIP_Cuts_Gomory-LiftProj:Gomory 0
CPXPARAM_MIP_Cuts_Gomory-LiftProj:LiftProj 0
Instance12
Objective;Best_Integer;Best_Bound
0.0000;0.0000;106
integral;0.0000;LiftProj:2
cutoff;0.0000;148
CPXPARAM_MIP_Cuts_Gomory-LiftProj:Gomory 0
CPXPARAM_MIP_Cuts_Gomory-LiftProj:LiftProj 0
Instance13
Objective;Best_Integer;Best_Bound
-0.0000;-0.0000;102
integral;-0.0000;-0.0000
-0.0000;-0.0000;-0.0000
CPXPARAM_MIP_Cuts_Gomory-LiftProj:Gomory 0
CPXPARAM_MIP_Cuts_Gomory-LiftProj:LiftProj 0
Instance14
Objective;Best_Integer;Best_Bound
-0.0000;-0.0000;78
integral;-0.0000;-0.0000
-0.0000;-0.0000;-0.0000
CPXPARAM_MIP_Cuts_Gomory-LiftProj:Gomory 0
CPXPARAM_MIP_Cuts_Gomory-LiftProj:LiftProj 0
Instance15
Objective;Best_Integer;Best_Bound
integral;0.0000;0.0000
CPXPARAM_MIP_Cuts_Gomory-LiftProj:Gomory 0
CPXPARAM_MIP_Cuts_Gomory-LiftProj:LiftProj 0
Instance16
Objective;Best_Integer;Best_Bound
-0.0000;-0.0000;123
integral;-0.0000;LiftProj:2
cutoff;-0.0000;139
CPXPARAM_MIP_Cuts_Gomory-LiftProj:Gomory 1
CPXPARAM_MIP_Cuts_Gomory-LiftProj:LiftProj 0
Instance17
Objective;Best_Integer;Best_Bound
integral;-0.0000;-0.0000
CPXPARAM_MIP_Cuts_Gomory-LiftProj:Gomory 0
CPXPARAM_MIP_Cuts_Gomory-LiftProj:LiftProj 0
Instance18
Objective;Best_Integer;Best_Bound
integral;-0.0000;-0.0000
CPXPARAM_MIP_Cuts_Gomory-LiftProj:Gomory 0
CPXPARAM_MIP_Cuts_Gomory-LiftProj:LiftProj 0
Instance19
Objective;Best_Integer;Best_Bound
integral;0.0000;0.0000
CPXPARAM_MIP_Cuts_Gomory-LiftProj:Gomory 0
CPXPARAM_MIP_Cuts_Gomory-LiftProj:LiftProj 0
Instance20
Objective;Best_Integer;Best_Bound
0.0000;0.0000;115
0.0000;0.0000;136
CPXPARAM_MIP_Cuts_Gomory-LiftProj:Gomory 0
CPXPARAM_MIP_Cuts_Gomory-LiftProj:LiftProj 0
Instance21
Objective;Best_Integer;Best_Bound
-0.0000;-0.0000;114
0.0000;0.0000;131
CPXPARAM_MIP_Cuts_Gomory-LiftProj:Gomory 0
CPXPARAM_MIP_Cuts_Gomory-LiftProj:LiftProj 0
Instance22
Objective;Best_Integer;Best_Bound
integral;0.0000;0.0000
CPXPARAM_MIP_Cuts_Gomory-LiftProj:Gomory 0
CPXPARAM_MIP_Cuts_Gomory-LiftProj:LiftProj 0
Instance23
Objective;Best_Integer;Best_Bound
integral;0.0000;0.0000
CPXPARAM_MIP_Cuts_Gomory-LiftProj:Gomory 0
CPXPARAM_MIP_Cuts_Gomory-LiftProj:LiftProj 0
Instance24
Objective;Best_Integer;Best_Bound
0.0000;0.0000;120
0.0000;Cuts:4;123
integral;0.0000;Cuts:2
cutoff;0.0000;124
CPXPARAM_MIP_Cuts_Gomory-LiftProj:Gomory 2
CPXPARAM_MIP_Cuts_Gomory-LiftProj:LiftProj 2
Instance25
Objective;Best_Integer;Best_Bound
0.0000;0.0000;151
0.0000;0.0000;151
CPXPARAM_MIP_Cuts_Gomory-LiftProj:Gomory 0
CPXPARAM_MIP_Cuts_Gomory-LiftProj:LiftProj 0
Instance26
Objective;Best_Integer;Best_Bound
integral;0.0000;0.0000
CPXPARAM_MIP_Cuts_Gomory-LiftProj:Gomory 0
CPXPARAM_MIP_Cuts_Gomory-LiftProj:LiftProj 0
Instance27
Objective;Best_Integer;Best_Bound
integral;-0.0000;-0.0000
CPXPARAM_MIP_Cuts_Gomory-LiftProj:Gomory 0
CPXPARAM_MIP_Cuts_Gomory-LiftProj:LiftProj 0
Instance28
Objective;Best_Integer;Best_Bound
0.0000;0.0000;121
0.0000;LiftProj:1;124
0.0000;0.0000;124
CPXPARAM_MIP_Cuts_Gomory-LiftProj:Gomory 1
CPXPARAM_MIP_Cuts_Gomory-LiftProj:LiftProj 0
Instance29
Objective;Best_Integer;Best_Bound
-0.0000;-0.0000;126
-0.0000;-0.0000;149
CPXPARAM_MIP_Cuts_Gomory-LiftProj:Gomory 0
CPXPARAM_MIP_Cuts_Gomory-LiftProj:LiftProj 0
Instance30
Objective;Best_Integer;Best_Bound
integral;0.0000;0.0000
CPXPARAM_MIP_Cuts_Gomory-LiftProj:Gomory 0
CPXPARAM_MIP_Cuts_Gomory-LiftProj:LiftProj 0
Instance31
Objective;Best_Integer;Best_Bound
integral;-0.0000;-0.0000
CPXPARAM_MIP_Cuts_Gomory-LiftProj:Gomory 0
CPXPARAM_MIP_Cuts_Gomory-LiftProj:LiftProj 0
Instance32
Objective;Best_Integer;Best_Bound
0.0000;0.0000;147
0.0000;LiftProj:1;176
0.0000;LiftProj:2;182
0.0000;Cuts:5;186
0.0000;0.0000;186
CPXPARAM_MIP_Cuts_Gomory-LiftProj:Gomory 0
CPXPARAM_MIP_Cuts_Gomory-LiftProj:LiftProj 2
Instance33
Objective;Best_Integer;Best_Bound
-0.0000;-0.0000;101
-0.0000;-0.0000;101
CPXPARAM_MIP_Cuts_Gomory-LiftProj:Gomory 0
CPXPARAM_MIP_Cuts_Gomory-LiftProj:LiftProj 0
Instance34
Objective;Best_Integer;Best_Bound
integral;0.0000;0.0000
CPXPARAM_MIP_Cuts_Gomory-LiftProj:Gomory 0
CPXPARAM_MIP_Cuts_Gomory-LiftProj:LiftProj 0
Instance35
Objective;Best_Integer;Best_Bound
integral;0.0000;0.0000
CPXPARAM_MIP_Cuts_Gomory-LiftProj:Gomory 0
CPXPARAM_MIP_Cuts_Gomory-LiftProj:LiftProj 0
Instance36
Objective;Best_Integer;Best_Bound
-0.0000;-0.0000;118
-0.0000;LiftProj:3;150
-0.0000;LiftProj:1;152
-0.0000;LiftProj:3;155
-0.0000;-0.0000;155
CPXPARAM_MIP_Cuts_Gomory-LiftProj:Gomory 2
CPXPARAM_MIP_Cuts_Gomory-LiftProj:LiftProj 0
Instance37
Objective;Best_Integer;Best_Bound
integral;0.0000;0.0000
CPXPARAM_MIP_Cuts_Gomory-LiftProj:Gomory 0
CPXPARAM_MIP_Cuts_Gomory-LiftProj:LiftProj 0
Instance38
Objective;Best_Integer;Best_Bound
integral;0.0000;0.0000
CPXPARAM_MIP_Cuts_Gomory-LiftProj:Gomory 0
CPXPARAM_MIP_Cuts_Gomory-LiftProj:LiftProj 0
Instance39
Objective;Best_Integer;Best_Bound
integral;0.0000;0.0000
CPXPARAM_MIP_Cuts_Gomory-LiftProj:Gomory 0
CPXPARAM_MIP_Cuts_Gomory-LiftProj:LiftProj 0
